10J3M/DAT/10J3MNNR-13.dat
10 3
25.7806 4.5018
23.65 32.5793
19.7865 37.6243
27.4057 9.7476
23.0633 4.2903
29.694 26.3132
33.6838 45.2763
20.165 44.2691
20.1436 4.1214
27.8502 34.6522
243.3755