10J3M/SOL/10J3MNNR-13.sol
solution status: optimal solution found
objective value:                     82.5005666666666
x#1#1                                               1 	(obj:0)
x#2#3                                               1 	(obj:0)
x#3#1                                               1 	(obj:0)
x#4#2                               0.641194157620997 	(obj:0)
x#4#3                               0.358805842379002 	(obj:0)
x#5#3                                               1 	(obj:0)
x#6#1                               0.645949285371312 	(obj:0)
x#6#3                               0.354050714628688 	(obj:0)
x#7#2                                               1 	(obj:0)
x#8#1                                               1 	(obj:0)
x#9#2                                               1 	(obj:0)
x#10#2                                              1 	(obj:0)
z                                    82.5005666666666 	(obj:1)
